tolerance 2.0
filetype pdb
output membrane_only.pdb

add_amber_ter
amber_ter_preserve
nloop 100

structure POPC.pdb
  nloop 20
  number 224
  inside box -64.47 -64.47 -23.0 64.47 64.47 0.0
  atoms 1 20
    below plane 0. 0. 1. -18.0
  end atoms
  atoms 88 131
    over plane 0. 0. 1. -4.0
  end atoms
end structure

structure CHL1.pdb
  radius 1.5
  nloop 20
  number 56
  inside box -59.47 -59.47 -23.0 59.47 59.47 0.0
  atoms 1 3
    below plane 0. 0. 1. -18.0
  end atoms
  atoms 67 71
    over plane 0. 0. 1. -4.0
  end atoms
end structure

structure POPC.pdb
  nloop 20
  number 226
  inside box -64.47 -64.47 0.0 64.47 64.47 23.0
  atoms 1 20
    over plane 0. 0. 1. 18.0
  end atoms
  atoms 88 131
    below plane 0. 0. 1. 4.0
  end atoms
end structure

structure CHL1.pdb
  radius 1.5
  nloop 20
  number 56
  inside box -59.47 -59.47 0.0 59.47 59.47 23.0
  atoms 1 3
    over plane 0. 0. 1. 18.0
  end atoms
  atoms 67 71
    below plane 0. 0. 1. 4.0
  end atoms
end structure

structure WAT.pdb
  nloop 20
  number 49739
  inside box -64.47 -64.47 -116.84 64.47 64.47 -23.0
end structure

structure WAT.pdb
  nloop 20
  number 29876
  inside box -64.47 -64.47 23.0 64.47 64.47 77.42
end structure

structure K+.pdb
  nloop 20
  number 134
  inside box -64.47 -64.47 -116.84 64.47 64.47 -23.0
end structure

structure K+.pdb
  nloop 20
  number 79
  inside box -64.47 -64.47 23.0 64.47 64.47 77.42
end structure

structure Cl-.pdb
  nloop 20
  number 133
  inside box -64.47 -64.47 -116.84 64.47 64.47 -23.0
end structure

structure Cl-.pdb
  nloop 20
  number 79
  inside box -64.47 -64.47 23.0 64.47 64.47 77.42
end structure
